0 4
0 5
0 6
0 7
0 80
1 4
1 5
1 6
1 7
1 81
2 4
2 5
2 6
2 7
2 82
3 4
3 5
3 6
3 7
3 83
4 12
5 13
6 14
7 15
8 12
8 13
8 14
8 15
8 88
9 12
9 13
9 14
9 15
9 89
10 12
10 13
10 14
10 15
10 90
11 12
11 13
11 14
11 15
11 91
12 20
13 21
14 22
15 23
16 20
16 21
16 22
16 23
16 96
17 20
17 21
17 22
17 23
17 97
18 20
18 21
18 22
18 23
18 98
19 20
19 21
19 22
19 23
19 99
20 28
21 29
22 30
23 31
24 28
24 29
24 30
24 31
24 104
25 28
25 29
25 30
25 31
25 105
26 28
26 29
26 30
26 31
26 106
27 28
27 29
27 30
27 31
27 107
28 36
29 37
30 38
31 39
32 36
32 37
32 38
32 39
32 112
33 36
33 37
33 38
33 39
33 113
34 36
34 37
34 38
34 39
34 114
35 36
35 37
35 38
35 39
35 115
36 44
37 45
38 46
39 47
40 44
40 45
40 46
40 47
40 120
41 44
41 45
41 46
41 47
41 121
42 44
42 45
42 46
42 47
42 122
43 44
43 45
43 46
43 47
43 123
44 52
45 53
46 54
47 55
48 52
48 53
48 54
48 55
48 128
49 52
49 53
49 54
49 55
49 129
50 52
50 53
50 54
50 55
50 130
51 52
51 53
51 54
51 55
51 131
52 60
53 61
54 62
55 63
56 60
56 61
56 62
56 63
56 136
57 60
57 61
57 62
57 63
57 137
58 60
58 61
58 62
58 63
58 138
59 60
59 61
59 62
59 63
59 139
60 68
61 69
62 70
63 71
64 68
64 69
64 70
64 71
64 144
65 68
65 69
65 70
65 71
65 145
66 68
66 69
66 70
66 71
66 146
67 68
67 69
67 70
67 71
67 147
68 76
69 77
70 78
71 79
72 76
72 77
72 78
72 79
72 152
73 76
73 77
73 78
73 79
73 153
74 76
74 77
74 78
74 79
74 154
75 76
75 77
75 78
75 79
75 155
80 84
80 85
80 86
80 87
80 160
81 84
81 85
81 86
81 87
81 161
82 84
82 85
82 86
82 87
82 162
83 84
83 85
83 86
83 87
83 163
84 92
85 93
86 94
87 95
88 92
88 93
88 94
88 95
88 168
89 92
89 93
89 94
89 95
89 169
90 92
90 93
90 94
90 95
90 170
91 92
91 93
91 94
91 95
91 171
92 100
93 101
94 102
95 103
96 100
96 101
96 102
96 103
96 176
97 100
97 101
97 102
97 103
97 177
98 100
98 101
98 102
98 103
98 178
99 100
99 101
99 102
99 103
99 179
100 108
101 109
102 110
103 111
104 108
104 109
104 110
104 111
104 184
105 108
105 109
105 110
105 111
105 185
106 108
106 109
106 110
106 111
106 186
107 108
107 109
107 110
107 111
107 187
108 116
109 117
110 118
111 119
112 116
112 117
112 118
112 119
112 192
113 116
113 117
113 118
113 119
113 193
114 116
114 117
114 118
114 119
114 194
115 116
115 117
115 118
115 119
115 195
116 124
117 125
118 126
119 127
120 124
120 125
120 126
120 127
120 200
121 124
121 125
121 126
121 127
121 201
122 124
122 125
122 126
122 127
122 202
123 124
123 125
123 126
123 127
123 203
124 132
125 133
126 134
127 135
128 132
128 133
128 134
128 135
128 208
129 132
129 133
129 134
129 135
129 209
130 132
130 133
130 134
130 135
130 210
131 132
131 133
131 134
131 135
131 211
132 140
133 141
134 142
135 143
136 140
136 141
136 142
136 143
136 216
137 140
137 141
137 142
137 143
137 217
138 140
138 141
138 142
138 143
138 218
139 140
139 141
139 142
139 143
139 219
140 148
141 149
142 150
143 151
144 148
144 149
144 150
144 151
144 224
145 148
145 149
145 150
145 151
145 225
146 148
146 149
146 150
146 151
146 226
147 148
147 149
147 150
147 151
147 227
148 156
149 157
150 158
151 159
152 156
152 157
152 158
152 159
152 232
153 156
153 157
153 158
153 159
153 233
154 156
154 157
154 158
154 159
154 234
155 156
155 157
155 158
155 159
155 235
160 164
160 165
160 166
160 167
160 240
161 164
161 165
161 166
161 167
161 241
162 164
162 165
162 166
162 167
162 242
163 164
163 165
163 166
163 167
163 243
164 172
165 173
166 174
167 175
168 172
168 173
168 174
168 175
168 248
169 172
169 173
169 174
169 175
169 249
170 172
170 173
170 174
170 175
170 250
171 172
171 173
171 174
171 175
171 251
172 180
173 181
174 182
175 183
176 180
176 181
176 182
176 183
176 256
177 180
177 181
177 182
177 183
177 257
178 180
178 181
178 182
178 183
178 258
179 180
179 181
179 182
179 183
179 259
180 188
181 189
182 190
183 191
184 188
184 189
184 190
184 191
184 264
185 188
185 189
185 190
185 191
185 265
186 188
186 189
186 190
186 191
186 266
187 188
187 189
187 190
187 191
187 267
188 196
189 197
190 198
191 199
192 196
192 197
192 198
192 199
192 272
193 196
193 197
193 198
193 199
193 273
194 196
194 197
194 198
194 199
194 274
195 196
195 197
195 198
195 199
195 275
196 204
197 205
198 206
199 207
200 204
200 205
200 206
200 207
200 280
201 204
201 205
201 206
201 207
201 281
202 204
202 205
202 206
202 207
202 282
203 204
203 205
203 206
203 207
203 283
204 212
205 213
206 214
207 215
208 212
208 213
208 214
208 215
208 288
209 212
209 213
209 214
209 215
209 289
210 212
210 213
210 214
210 215
210 290
211 212
211 213
211 214
211 215
211 291
212 220
213 221
214 222
215 223
216 220
216 221
216 222
216 223
216 296
217 220
217 221
217 222
217 223
217 297
218 220
218 221
218 222
218 223
218 298
219 220
219 221
219 222
219 223
219 299
220 228
221 229
222 230
223 231
224 228
224 229
224 230
224 231
224 304
225 228
225 229
225 230
225 231
225 305
226 228
226 229
226 230
226 231
226 306
227 228
227 229
227 230
227 231
227 307
228 236
229 237
230 238
231 239
232 236
232 237
232 238
232 239
232 312
233 236
233 237
233 238
233 239
233 313
234 236
234 237
234 238
234 239
234 314
235 236
235 237
235 238
235 239
235 315
240 244
240 245
240 246
240 247
240 320
241 244
241 245
241 246
241 247
241 321
242 244
242 245
242 246
242 247
242 322
243 244
243 245
243 246
243 247
243 323
244 252
245 253
246 254
247 255
248 252
248 253
248 254
248 255
248 328
249 252
249 253
249 254
249 255
249 329
250 252
250 253
250 254
250 255
250 330
251 252
251 253
251 254
251 255
251 331
252 260
253 261
254 262
255 263
256 260
256 261
256 262
256 263
256 336
257 260
257 261
257 262
257 263
257 337
258 260
258 261
258 262
258 263
258 338
259 260
259 261
259 262
259 263
259 339
260 268
261 269
262 270
263 271
264 268
264 269
264 270
264 271
264 344
265 268
265 269
265 270
265 271
265 345
266 268
266 269
266 270
266 271
266 346
267 268
267 269
267 270
267 271
267 347
268 276
269 277
270 278
271 279
272 276
272 277
272 278
272 279
272 352
273 276
273 277
273 278
273 279
273 353
274 276
274 277
274 278
274 279
274 354
275 276
275 277
275 278
275 279
275 355
276 284
277 285
278 286
279 287
280 284
280 285
280 286
280 287
280 360
281 284
281 285
281 286
281 287
281 361
282 284
282 285
282 286
282 287
282 362
283 284
283 285
283 286
283 287
283 363
284 292
285 293
286 294
287 295
288 292
288 293
288 294
288 295
288 368
289 292
289 293
289 294
289 295
289 369
290 292
290 293
290 294
290 295
290 370
291 292
291 293
291 294
291 295
291 371
292 300
293 301
294 302
295 303
296 300
296 301
296 302
296 303
296 376
297 300
297 301
297 302
297 303
297 377
298 300
298 301
298 302
298 303
298 378
299 300
299 301
299 302
299 303
299 379
300 308
301 309
302 310
303 311
304 308
304 309
304 310
304 311
304 384
305 308
305 309
305 310
305 311
305 385
306 308
306 309
306 310
306 311
306 386
307 308
307 309
307 310
307 311
307 387
308 316
309 317
310 318
311 319
312 316
312 317
312 318
312 319
312 392
313 316
313 317
313 318
313 319
313 393
314 316
314 317
314 318
314 319
314 394
315 316
315 317
315 318
315 319
315 395
320 324
320 325
320 326
320 327
320 400
321 324
321 325
321 326
321 327
321 401
322 324
322 325
322 326
322 327
322 402
323 324
323 325
323 326
323 327
323 403
324 332
325 333
326 334
327 335
328 332
328 333
328 334
328 335
328 408
329 332
329 333
329 334
329 335
329 409
330 332
330 333
330 334
330 335
330 410
331 332
331 333
331 334
331 335
331 411
332 340
333 341
334 342
335 343
336 340
336 341
336 342
336 343
336 416
337 340
337 341
337 342
337 343
337 417
338 340
338 341
338 342
338 343
338 418
339 340
339 341
339 342
339 343
339 419
340 348
341 349
342 350
343 351
344 348
344 349
344 350
344 351
344 424
345 348
345 349
345 350
345 351
345 425
346 348
346 349
346 350
346 351
346 426
347 348
347 349
347 350
347 351
347 427
348 356
349 357
350 358
351 359
352 356
352 357
352 358
352 359
352 432
353 356
353 357
353 358
353 359
353 433
354 356
354 357
354 358
354 359
354 434
355 356
355 357
355 358
355 359
355 435
356 364
357 365
358 366
359 367
360 364
360 365
360 366
360 367
360 440
361 364
361 365
361 366
361 367
361 441
362 364
362 365
362 366
362 367
362 442
363 364
363 365
363 366
363 367
363 443
364 372
365 373
366 374
367 375
368 372
368 373
368 374
368 375
368 448
369 372
369 373
369 374
369 375
369 449
370 372
370 373
370 374
370 375
370 450
371 372
371 373
371 374
371 375
371 451
372 380
373 381
374 382
375 383
376 380
376 381
376 382
376 383
376 456
377 380
377 381
377 382
377 383
377 457
378 380
378 381
378 382
378 383
378 458
379 380
379 381
379 382
379 383
379 459
380 388
381 389
382 390
383 391
384 388
384 389
384 390
384 391
384 464
385 388
385 389
385 390
385 391
385 465
386 388
386 389
386 390
386 391
386 466
387 388
387 389
387 390
387 391
387 467
388 396
389 397
390 398
391 399
392 396
392 397
392 398
392 399
392 472
393 396
393 397
393 398
393 399
393 473
394 396
394 397
394 398
394 399
394 474
395 396
395 397
395 398
395 399
395 475
400 404
400 405
400 406
400 407
400 480
401 404
401 405
401 406
401 407
401 481
402 404
402 405
402 406
402 407
402 482
403 404
403 405
403 406
403 407
403 483
404 412
405 413
406 414
407 415
408 412
408 413
408 414
408 415
408 488
409 412
409 413
409 414
409 415
409 489
410 412
410 413
410 414
410 415
410 490
411 412
411 413
411 414
411 415
411 491
412 420
413 421
414 422
415 423
416 420
416 421
416 422
416 423
416 496
417 420
417 421
417 422
417 423
417 497
418 420
418 421
418 422
418 423
418 498
419 420
419 421
419 422
419 423
419 499
420 428
421 429
422 430
423 431
424 428
424 429
424 430
424 431
424 504
425 428
425 429
425 430
425 431
425 505
426 428
426 429
426 430
426 431
426 506
427 428
427 429
427 430
427 431
427 507
428 436
429 437
430 438
431 439
432 436
432 437
432 438
432 439
432 512
433 436
433 437
433 438
433 439
433 513
434 436
434 437
434 438
434 439
434 514
435 436
435 437
435 438
435 439
435 515
436 444
437 445
438 446
439 447
440 444
440 445
440 446
440 447
440 520
441 444
441 445
441 446
441 447
441 521
442 444
442 445
442 446
442 447
442 522
443 444
443 445
443 446
443 447
443 523
444 452
445 453
446 454
447 455
448 452
448 453
448 454
448 455
448 528
449 452
449 453
449 454
449 455
449 529
450 452
450 453
450 454
450 455
450 530
451 452
451 453
451 454
451 455
451 531
452 460
453 461
454 462
455 463
456 460
456 461
456 462
456 463
456 536
457 460
457 461
457 462
457 463
457 537
458 460
458 461
458 462
458 463
458 538
459 460
459 461
459 462
459 463
459 539
460 468
461 469
462 470
463 471
464 468
464 469
464 470
464 471
464 544
465 468
465 469
465 470
465 471
465 545
466 468
466 469
466 470
466 471
466 546
467 468
467 469
467 470
467 471
467 547
468 476
469 477
470 478
471 479
472 476
472 477
472 478
472 479
472 552
473 476
473 477
473 478
473 479
473 553
474 476
474 477
474 478
474 479
474 554
475 476
475 477
475 478
475 479
475 555
480 484
480 485
480 486
480 487
480 560
481 484
481 485
481 486
481 487
481 561
482 484
482 485
482 486
482 487
482 562
483 484
483 485
483 486
483 487
483 563
484 492
485 493
486 494
487 495
488 492
488 493
488 494
488 495
488 568
489 492
489 493
489 494
489 495
489 569
490 492
490 493
490 494
490 495
490 570
491 492
491 493
491 494
491 495
491 571
492 500
493 501
494 502
495 503
496 500
496 501
496 502
496 503
496 576
497 500
497 501
497 502
497 503
497 577
498 500
498 501
498 502
498 503
498 578
499 500
499 501
499 502
499 503
499 579
500 508
501 509
502 510
503 511
504 508
504 509
504 510
504 511
504 584
505 508
505 509
505 510
505 511
505 585
506 508
506 509
506 510
506 511
506 586
507 508
507 509
507 510
507 511
507 587
508 516
509 517
510 518
511 519
512 516
512 517
512 518
512 519
512 592
513 516
513 517
513 518
513 519
513 593
514 516
514 517
514 518
514 519
514 594
515 516
515 517
515 518
515 519
515 595
516 524
517 525
518 526
519 527
520 524
520 525
520 526
520 527
520 600
521 524
521 525
521 526
521 527
521 601
522 524
522 525
522 526
522 527
522 602
523 524
523 525
523 526
523 527
523 603
524 532
525 533
526 534
527 535
528 532
528 533
528 534
528 535
528 608
529 532
529 533
529 534
529 535
529 609
530 532
530 533
530 534
530 535
530 610
531 532
531 533
531 534
531 535
531 611
532 540
533 541
534 542
535 543
536 540
536 541
536 542
536 543
536 616
537 540
537 541
537 542
537 543
537 617
538 540
538 541
538 542
538 543
538 618
539 540
539 541
539 542
539 543
539 619
540 548
541 549
542 550
543 551
544 548
544 549
544 550
544 551
544 624
545 548
545 549
545 550
545 551
545 625
546 548
546 549
546 550
546 551
546 626
547 548
547 549
547 550
547 551
547 627
548 556
549 557
550 558
551 559
552 556
552 557
552 558
552 559
552 632
553 556
553 557
553 558
553 559
553 633
554 556
554 557
554 558
554 559
554 634
555 556
555 557
555 558
555 559
555 635
560 564
560 565
560 566
560 567
560 640
561 564
561 565
561 566
561 567
561 641
562 564
562 565
562 566
562 567
562 642
563 564
563 565
563 566
563 567
563 643
564 572
565 573
566 574
567 575
568 572
568 573
568 574
568 575
568 648
569 572
569 573
569 574
569 575
569 649
570 572
570 573
570 574
570 575
570 650
571 572
571 573
571 574
571 575
571 651
572 580
573 581
574 582
575 583
576 580
576 581
576 582
576 583
576 656
577 580
577 581
577 582
577 583
577 657
578 580
578 581
578 582
578 583
578 658
579 580
579 581
579 582
579 583
579 659
580 588
581 589
582 590
583 591
584 588
584 589
584 590
584 591
584 664
585 588
585 589
585 590
585 591
585 665
586 588
586 589
586 590
586 591
586 666
587 588
587 589
587 590
587 591
587 667
588 596
589 597
590 598
591 599
592 596
592 597
592 598
592 599
592 672
593 596
593 597
593 598
593 599
593 673
594 596
594 597
594 598
594 599
594 674
595 596
595 597
595 598
595 599
595 675
596 604
597 605
598 606
599 607
600 604
600 605
600 606
600 607
600 680
601 604
601 605
601 606
601 607
601 681
602 604
602 605
602 606
602 607
602 682
603 604
603 605
603 606
603 607
603 683
604 612
605 613
606 614
607 615
608 612
608 613
608 614
608 615
608 688
609 612
609 613
609 614
609 615
609 689
610 612
610 613
610 614
610 615
610 690
611 612
611 613
611 614
611 615
611 691
612 620
613 621
614 622
615 623
616 620
616 621
616 622
616 623
616 696
617 620
617 621
617 622
617 623
617 697
618 620
618 621
618 622
618 623
618 698
619 620
619 621
619 622
619 623
619 699
620 628
621 629
622 630
623 631
624 628
624 629
624 630
624 631
624 704
625 628
625 629
625 630
625 631
625 705
626 628
626 629
626 630
626 631
626 706
627 628
627 629
627 630
627 631
627 707
628 636
629 637
630 638
631 639
632 636
632 637
632 638
632 639
632 712
633 636
633 637
633 638
633 639
633 713
634 636
634 637
634 638
634 639
634 714
635 636
635 637
635 638
635 639
635 715
640 644
640 645
640 646
640 647
640 720
641 644
641 645
641 646
641 647
641 721
642 644
642 645
642 646
642 647
642 722
643 644
643 645
643 646
643 647
643 723
644 652
645 653
646 654
647 655
648 652
648 653
648 654
648 655
648 728
649 652
649 653
649 654
649 655
649 729
650 652
650 653
650 654
650 655
650 730
651 652
651 653
651 654
651 655
651 731
652 660
653 661
654 662
655 663
656 660
656 661
656 662
656 663
656 736
657 660
657 661
657 662
657 663
657 737
658 660
658 661
658 662
658 663
658 738
659 660
659 661
659 662
659 663
659 739
660 668
661 669
662 670
663 671
664 668
664 669
664 670
664 671
664 744
665 668
665 669
665 670
665 671
665 745
666 668
666 669
666 670
666 671
666 746
667 668
667 669
667 670
667 671
667 747
668 676
669 677
670 678
671 679
672 676
672 677
672 678
672 679
672 752
673 676
673 677
673 678
673 679
673 753
674 676
674 677
674 678
674 679
674 754
675 676
675 677
675 678
675 679
675 755
676 684
677 685
678 686
679 687
680 684
680 685
680 686
680 687
680 760
681 684
681 685
681 686
681 687
681 761
682 684
682 685
682 686
682 687
682 762
683 684
683 685
683 686
683 687
683 763
684 692
685 693
686 694
687 695
688 692
688 693
688 694
688 695
688 768
689 692
689 693
689 694
689 695
689 769
690 692
690 693
690 694
690 695
690 770
691 692
691 693
691 694
691 695
691 771
692 700
693 701
694 702
695 703
696 700
696 701
696 702
696 703
696 776
697 700
697 701
697 702
697 703
697 777
698 700
698 701
698 702
698 703
698 778
699 700
699 701
699 702
699 703
699 779
700 708
701 709
702 710
703 711
704 708
704 709
704 710
704 711
704 784
705 708
705 709
705 710
705 711
705 785
706 708
706 709
706 710
706 711
706 786
707 708
707 709
707 710
707 711
707 787
708 716
709 717
710 718
711 719
712 716
712 717
712 718
712 719
712 792
713 716
713 717
713 718
713 719
713 793
714 716
714 717
714 718
714 719
714 794
715 716
715 717
715 718
715 719
715 795
720 724
720 725
720 726
720 727
721 724
721 725
721 726
721 727
722 724
722 725
722 726
722 727
723 724
723 725
723 726
723 727
724 732
725 733
726 734
727 735
728 732
728 733
728 734
728 735
729 732
729 733
729 734
729 735
730 732
730 733
730 734
730 735
731 732
731 733
731 734
731 735
732 740
733 741
734 742
735 743
736 740
736 741
736 742
736 743
737 740
737 741
737 742
737 743
738 740
738 741
738 742
738 743
739 740
739 741
739 742
739 743
740 748
741 749
742 750
743 751
744 748
744 749
744 750
744 751
745 748
745 749
745 750
745 751
746 748
746 749
746 750
746 751
747 748
747 749
747 750
747 751
748 756
749 757
750 758
751 759
752 756
752 757
752 758
752 759
753 756
753 757
753 758
753 759
754 756
754 757
754 758
754 759
755 756
755 757
755 758
755 759
756 764
757 765
758 766
759 767
760 764
760 765
760 766
760 767
761 764
761 765
761 766
761 767
762 764
762 765
762 766
762 767
763 764
763 765
763 766
763 767
764 772
765 773
766 774
767 775
768 772
768 773
768 774
768 775
769 772
769 773
769 774
769 775
770 772
770 773
770 774
770 775
771 772
771 773
771 774
771 775
772 780
773 781
774 782
775 783
776 780
776 781
776 782
776 783
777 780
777 781
777 782
777 783
778 780
778 781
778 782
778 783
779 780
779 781
779 782
779 783
780 788
781 789
782 790
783 791
784 788
784 789
784 790
784 791
785 788
785 789
785 790
785 791
786 788
786 789
786 790
786 791
787 788
787 789
787 790
787 791
788 796
789 797
790 798
791 799
792 796
792 797
792 798
792 799
793 796
793 797
793 798
793 799
794 796
794 797
794 798
794 799
795 796
795 797
795 798
795 799
